p cnf 29 89
-1 2 -3 0
1 -2 -3 0
-1 -2 3 0
1 2 3 0
5 3 0
5 4 0
-3 -4 -5 0
-6 7 -8 0
6 -7 -8 0
-6 -7 8 0
6 7 8 0
-5 8 -9 0
5 -8 -9 0
-5 -8 9 0
5 8 9 0
-12 10 0
-12 11 0
-10 -11 12 0
7 3 -13 0
-7 -3 -13 0
7 -3 13 0
-7 3 13 0
-12 13 -14 0
12 -13 -14 0
-12 -13 14 0
12 13 14 0
-15 9 0
-15 14 0
-9 -14 15 0
-10 16 -17 0
10 -16 -17 0
-10 -16 17 0
10 16 17 0
-6 17 -18 0
6 -17 -18 0
-6 -17 18 0
6 17 18 0
-20 -18 0
-20 19 0
18 -19 20 0
21 2 0
21 19 0
-2 -19 -21 0
22 4 0
22 19 0
-4 -19 -22 0
-23 -21 0
-23 -22 0
21 22 23 0
20 23 -24 0
-20 -23 -24 0
20 -23 24 0
-20 23 24 0
25 -10 -26 0
-25 10 -26 0
25 10 26 0
-25 -10 26 0
-27 19 0
-27 -26 0
-19 26 27 0
24 -27 -28 0
-24 27 -28 0
24 27 28 0
-24 -27 28 0
-15 -28 -29 0
15 28 -29 0
-15 28 29 0
15 -28 29 0
-23 17 0
12 -11 23 -16 -13 -20 0
23 18 -24 0
29 -18 -10 24 11 -3 0
9 24 0
-6 -1 0
22 -5 -11 -18 0
-19 -15 -6 -17 24 5 0
12 -5 -27 0
-3 -25 -27 8 -14 0
19 4 -1 -23 -6 0
-1 -12 19 -4 5 0
-5 -7 -8 0
13 16 2 0
-7 19 -26 29 2 20 0
-4 7 21 20 -6 0
26 -5 0
-27 -17 -13 18 0
7 24 23 0
-27 -3 -12 -24 -5 -2 0
29 0
